n = 24;
lu = [|-203, 208
      |-234, -129
      |-230, -179
      |-389, -267
      |-550, 4
      |327, 381
      |-519, -340
      |-231, 482
      |333, 430
      |47, 447
      |-402, -56
      |-254, 93
      |-424, 49
      |175, 534
      |-508, -139
      |71, 118
      |-434, 60
      |-378, -73
      |-263, 426
      |-31, 5
      |-16, 575
      |-385, -171
      |-261, 436
      |-283, 88|];
